n_res = 4;
rc = [ 24, 22, 22, 22 ];
n_tasks = 30;
d = [ 10, 8, 6, 3, 4, 10, 5, 10, 10, 7, 6, 5, 10, 4, 9, 7, 6, 8, 7, 9, 10, 4, 4, 3, 10, 2, 3, 8, 10, 6 ];
rr = [| 8, 1, 8, 2, 6, 10, 7, 9, 3, 9, 7, 8, 9, 5, 8, 2, 1, 6, 3, 8, 5, 3, 4, 4, 1, 1, 9, 8, 10, 7
      | 10, 5, 5, 2, 7, 4, 7, 9, 6, 1, 9, 5, 8, 10, 3, 10, 1, 3, 3, 1, 7, 2, 6, 1, 8, 8, 3, 3, 6, 5
      | 7, 2, 1, 10, 4, 6, 1, 9, 6, 4, 3, 3, 6, 5, 10, 4, 3, 8, 1, 4, 5, 8, 3, 4, 8, 6, 5, 9, 8, 3
      | 4, 7, 10, 4, 7, 8, 8, 10, 8, 1, 4, 3, 5, 6, 9, 5, 5, 1, 5, 4, 4, 5, 7, 9, 4, 4, 9, 4, 4, 10 |];
suc = [ { 2 }, 
        { 3 }, 
        { 4 }, 
        { 5 }, 
        { 6 }, 
        { 7 }, 
        { 8 }, 
        { 9 }, 
        { 10 }, 
        { 11 }, 
        { 12 }, 
        { 13 }, 
        { 14 }, 
        { 15 }, 
        { 16 }, 
        { 17 }, 
        { 18 }, 
        { 19 }, 
        { 20 }, 
        { 21 }, 
        { 22 }, 
        { 23 }, 
        { 24 }, 
        { 25 }, 
        { 26 }, 
        { 27 }, 
        { 28 }, 
        { 29 }, 
        { 30 }, 
        {  }]; 
